-211.0 9.0 7.0 4.0 8.0 0.0 5.0 3.0 5.0 2.0 9.0 7.0 6.0 1.0 3.0 5.0 2.0 7.0 5.0 2.0 6.0 6.0 4.0 1.0 2.0 4.0 3.0 8.0 6.0 5.0 0.0 8.0 1.0 10.0 9.0 3.0 4.0 4.0 2.0 0.0 2.0 2.0 3.0 9.0 0.0 7.0 4.0 6.0 2.0 0.0 
9.0 -266.0 2.0 8.0 3.0 7.0 6.0 1.0 9.0 8.0 8.0 3.0 5.0 2.0 3.0 9.0 8.0 3.0 10.0 7.0 2.0 4.0 6.0 2.0 3.0 9.0 3.0 8.0 5.0 5.0 3.0 9.0 10.0 5.0 5.0 6.0 7.0 4.0 3.0 2.0 5.0 2.0 6.0 6.0 10.0 9.0 6.0 10.0 0.0 0.0 
7.0 2.0 -222.0 4.0 0.0 8.0 7.0 1.0 3.0 0.0 3.0 7.0 3.0 0.0 3.0 3.0 8.0 0.0 5.0 6.0 5.0 3.0 3.0 5.0 9.0 8.0 2.0 10.0 1.0 8.0 2.0 9.0 1.0 2.0 7.0 9.0 4.0 4.0 6.0 5.0 1.0 2.0 10.0 7.0 2.0 2.0 7.0 10.0 3.0 5.0 
4.0 8.0 4.0 -253.0 6.0 1.0 0.0 8.0 10.0 2.0 10.0 1.0 2.0 10.0 3.0 8.0 5.0 10.0 5.0 1.0 8.0 9.0 2.0 4.0 10.0 1.0 3.0 6.0 8.0 0.0 10.0 9.0 5.0 10.0 5.0 4.0 2.0 5.0 2.0 3.0 4.0 5.0 3.0 6.0 10.0 3.0 0.0 8.0 5.0 5.0 
8.0 3.0 0.0 6.0 -209.0 2.0 5.0 3.0 0.0 9.0 4.0 2.0 2.0 5.0 10.0 2.0 6.0 2.0 9.0 0.0 2.0 1.0 8.0 7.0 2.0 6.0 5.0 8.0 5.0 6.0 4.0 4.0 9.0 2.0 5.0 1.0 0.0 6.0 5.0 8.0 0.0 4.0 0.0 2.0 10.0 2.0 1.0 0.0 10.0 8.0 
0.0 7.0 8.0 1.0 2.0 -238.0 3.0 7.0 6.0 5.0 6.0 10.0 3.0 8.0 6.0 2.0 0.0 2.0 9.0 8.0 0.0 7.0 8.0 3.0 6.0 3.0 2.0 0.0 8.0 3.0 10.0 1.0 7.0 6.0 7.0 7.0 5.0 4.0 5.0 7.0 2.0 2.0 8.0 4.0 5.0 9.0 7.0 6.0 2.0 1.0 
5.0 6.0 7.0 0.0 5.0 3.0 -228.0 0.0 8.0 2.0 0.0 0.0 6.0 3.0 1.0 10.0 2.0 10.0 10.0 6.0 8.0 1.0 10.0 0.0 3.0 8.0 4.0 7.0 10.0 6.0 1.0 5.0 4.0 5.0 1.0 9.0 7.0 6.0 3.0 0.0 0.0 2.0 4.0 1.0 0.0 9.0 9.0 8.0 6.0 7.0 
3.0 1.0 1.0 8.0 3.0 7.0 0.0 -226.0 6.0 0.0 4.0 2.0 3.0 5.0 7.0 10.0 9.0 3.0 8.0 6.0 2.0 8.0 6.0 5.0 2.0 2.0 5.0 5.0 2.0 0.0 3.0 10.0 9.0 4.0 10.0 0.0 8.0 5.0 7.0 3.0 8.0 6.0 5.0 0.0 10.0 2.0 0.0 6.0 1.0 6.0 
5.0 9.0 3.0 10.0 0.0 6.0 8.0 6.0 -277.0 6.0 10.0 6.0 9.0 1.0 10.0 4.0 6.0 3.0 1.0 4.0 4.0 4.0 1.0 9.0 6.0 6.0 10.0 9.0 1.0 6.0 6.0 5.0 1.0 7.0 7.0 7.0 9.0 8.0 5.0 5.0 1.0 3.0 6.0 8.0 5.0 5.0 3.0 4.0 9.0 10.0 
2.0 8.0 0.0 2.0 9.0 5.0 2.0 0.0 6.0 -230.0 0.0 3.0 2.0 6.0 3.0 0.0 3.0 1.0 10.0 3.0 10.0 4.0 8.0 2.0 3.0 4.0 3.0 6.0 1.0 0.0 7.0 7.0 3.0 7.0 6.0 4.0 10.0 10.0 2.0 4.0 4.0 5.0 6.0 8.0 7.0 7.0 9.0 2.0 7.0 9.0 
9.0 8.0 3.0 10.0 4.0 6.0 0.0 4.0 10.0 0.0 -228.0 9.0 4.0 7.0 3.0 2.0 10.0 7.0 0.0 6.0 3.0 4.0 10.0 6.0 0.0 1.0 5.0 3.0 1.0 2.0 10.0 4.0 10.0 5.0 0.0 1.0 9.0 4.0 1.0 8.0 7.0 3.0 1.0 0.0 3.0 0.0 7.0 3.0 10.0 5.0 
7.0 3.0 7.0 1.0 2.0 10.0 0.0 2.0 6.0 3.0 9.0 -233.0 4.0 8.0 5.0 2.0 7.0 3.0 10.0 6.0 0.0 3.0 1.0 1.0 3.0 1.0 9.0 9.0 3.0 6.0 4.0 5.0 5.0 5.0 10.0 5.0 0.0 5.0 9.0 4.0 1.0 10.0 4.0 9.0 7.0 3.0 10.0 3.0 3.0 0.0 
6.0 5.0 3.0 2.0 2.0 3.0 6.0 3.0 9.0 2.0 4.0 4.0 -221.0 7.0 6.0 3.0 6.0 10.0 2.0 5.0 0.0 5.0 7.0 1.0 5.0 9.0 0.0 7.0 8.0 4.0 5.0 4.0 1.0 1.0 7.0 1.0 2.0 7.0 1.0 7.0 5.0 3.0 4.0 0.0 7.0 3.0 8.0 10.0 8.0 3.0 
1.0 2.0 0.0 10.0 5.0 8.0 3.0 5.0 1.0 6.0 7.0 8.0 7.0 -191.0 4.0 5.0 10.0 1.0 4.0 8.0 0.0 6.0 0.0 3.0 3.0 3.0 0.0 4.0 0.0 9.0 1.0 0.0 1.0 1.0 0.0 1.0 2.0 10.0 5.0 2.0 6.0 7.0 0.0 8.0 3.0 0.0 4.0 2.0 7.0 8.0 
3.0 3.0 3.0 3.0 10.0 6.0 1.0 7.0 10.0 3.0 3.0 5.0 6.0 4.0 -236.0 3.0 10.0 10.0 4.0 6.0 2.0 4.0 4.0 6.0 0.0 7.0 2.0 1.0 0.0 5.0 10.0 5.0 2.0 3.0 5.0 9.0 1.0 10.0 1.0 9.0 7.0 0.0 10.0 2.0 2.0 7.0 7.0 10.0 3.0 2.0 
5.0 9.0 3.0 8.0 2.0 2.0 10.0 10.0 4.0 0.0 2.0 2.0 3.0 5.0 3.0 -247.0 5.0 8.0 8.0 3.0 3.0 0.0 4.0 3.0 3.0 6.0 5.0 5.0 0.0 9.0 3.0 2.0 2.0 9.0 9.0 8.0 9.0 6.0 5.0 3.0 3.0 0.0 10.0 3.0 9.0 9.0 9.0 4.0 7.0 7.0 
2.0 8.0 8.0 5.0 6.0 0.0 2.0 9.0 6.0 3.0 10.0 7.0 6.0 10.0 10.0 5.0 -241.0 8.0 9.0 0.0 6.0 5.0 1.0 0.0 0.0 7.0 8.0 3.0 4.0 2.0 8.0 5.0 3.0 2.0 10.0 6.0 9.0 8.0 0.0 1.0 2.0 1.0 0.0 7.0 9.0 1.0 8.0 9.0 1.0 1.0 
7.0 3.0 0.0 10.0 2.0 2.0 10.0 3.0 3.0 1.0 7.0 3.0 10.0 1.0 10.0 8.0 8.0 -245.0 1.0 7.0 7.0 4.0 0.0 1.0 5.0 3.0 4.0 5.0 2.0 7.0 6.0 3.0 10.0 6.0 0.0 7.0 3.0 8.0 6.0 8.0 4.0 6.0 8.0 4.0 5.0 3.0 5.0 0.0 10.0 9.0 
5.0 10.0 5.0 5.0 9.0 9.0 10.0 8.0 1.0 10.0 0.0 10.0 2.0 4.0 4.0 8.0 9.0 1.0 -272.0 9.0 2.0 5.0 6.0 4.0 4.0 10.0 0.0 5.0 3.0 5.0 1.0 6.0 10.0 10.0 5.0 4.0 7.0 10.0 1.0 3.0 4.0 6.0 7.0 2.0 2.0 3.0 10.0 4.0 6.0 8.0 
2.0 7.0 6.0 1.0 0.0 8.0 6.0 6.0 4.0 3.0 6.0 6.0 5.0 8.0 6.0 3.0 0.0 7.0 9.0 -227.0 7.0 10.0 9.0 5.0 1.0 7.0 10.0 3.0 1.0 6.0 0.0 4.0 0.0 10.0 3.0 0.0 7.0 7.0 10.0 9.0 2.0 1.0 1.0 1.0 8.0 1.0 1.0 1.0 3.0 6.0 
6.0 2.0 5.0 8.0 2.0 0.0 8.0 2.0 4.0 10.0 3.0 0.0 0.0 0.0 2.0 3.0 6.0 7.0 2.0 7.0 -217.0 7.0 1.0 6.0 0.0 2.0 0.0 4.0 3.0 7.0 6.0 4.0 9.0 7.0 5.0 2.0 4.0 7.0 7.0 0.0 8.0 0.0 8.0 6.0 9.0 7.0 10.0 9.0 0.0 2.0 
6.0 4.0 3.0 9.0 1.0 7.0 1.0 8.0 4.0 4.0 4.0 3.0 5.0 6.0 4.0 0.0 5.0 4.0 5.0 10.0 7.0 -230.0 5.0 10.0 7.0 1.0 6.0 0.0 9.0 3.0 3.0 6.0 4.0 9.0 1.0 0.0 5.0 8.0 4.0 1.0 1.0 8.0 6.0 8.0 3.0 2.0 8.0 1.0 8.0 3.0 
4.0 6.0 3.0 2.0 8.0 8.0 10.0 6.0 1.0 8.0 10.0 1.0 7.0 0.0 4.0 4.0 1.0 0.0 6.0 9.0 1.0 5.0 -254.0 7.0 6.0 4.0 8.0 10.0 8.0 10.0 6.0 2.0 5.0 8.0 1.0 5.0 3.0 1.0 5.0 4.0 0.0 8.0 9.0 10.0 2.0 10.0 10.0 7.0 0.0 1.0 
1.0 2.0 5.0 4.0 7.0 3.0 0.0 5.0 9.0 2.0 6.0 1.0 1.0 3.0 6.0 3.0 0.0 1.0 4.0 5.0 6.0 10.0 7.0 -227.0 9.0 3.0 7.0 6.0 3.0 3.0 5.0 9.0 10.0 10.0 2.0 4.0 3.0 7.0 10.0 4.0 1.0 3.0 7.0 1.0 6.0 7.0 3.0 10.0 1.0 2.0 
2.0 3.0 9.0 10.0 2.0 6.0 3.0 2.0 6.0 3.0 0.0 3.0 5.0 3.0 0.0 3.0 0.0 5.0 4.0 1.0 0.0 7.0 6.0 9.0 -197.0 2.0 0.0 4.0 4.0 7.0 2.0 2.0 0.0 3.0 3.0 5.0 0.0 5.0 5.0 5.0 9.0 1.0 10.0 7.0 6.0 0.0 1.0 9.0 8.0 7.0 
4.0 9.0 8.0 1.0 6.0 3.0 8.0 2.0 6.0 4.0 1.0 1.0 9.0 3.0 7.0 6.0 7.0 3.0 10.0 7.0 2.0 1.0 4.0 3.0 2.0 -244.0 9.0 6.0 3.0 2.0 9.0 7.0 2.0 7.0 2.0 9.0 5.0 2.0 6.0 6.0 6.0 4.0 10.0 0.0 7.0 9.0 5.0 2.0 7.0 2.0 
3.0 3.0 2.0 3.0 5.0 2.0 4.0 5.0 10.0 3.0 5.0 9.0 0.0 0.0 2.0 5.0 8.0 4.0 0.0 10.0 0.0 6.0 8.0 7.0 0.0 9.0 -254.0 10.0 10.0 4.0 9.0 7.0 5.0 7.0 5.0 4.0 8.0 8.0 9.0 5.0 7.0 0.0 9.0 5.0 0.0 8.0 3.0 4.0 9.0 5.0 
8.0 8.0 10.0 6.0 8.0 0.0 7.0 5.0 9.0 6.0 3.0 9.0 7.0 4.0 1.0 5.0 3.0 5.0 5.0 3.0 4.0 0.0 10.0 6.0 4.0 6.0 10.0 -266.0 1.0 8.0 0.0 5.0 9.0 0.0 10.0 9.0 3.0 2.0 10.0 10.0 5.0 10.0 0.0 2.0 2.0 8.0 10.0 0.0 4.0 6.0 
6.0 5.0 1.0 8.0 5.0 8.0 10.0 2.0 1.0 1.0 1.0 3.0 8.0 0.0 0.0 0.0 4.0 2.0 3.0 1.0 3.0 9.0 8.0 3.0 4.0 3.0 10.0 1.0 -214.0 8.0 0.0 2.0 3.0 9.0 7.0 6.0 10.0 1.0 7.0 8.0 1.0 2.0 9.0 1.0 4.0 7.0 6.0 3.0 0.0 10.0 
5.0 5.0 8.0 0.0 6.0 3.0 6.0 0.0 6.0 0.0 2.0 6.0 4.0 9.0 5.0 9.0 2.0 7.0 5.0 6.0 7.0 3.0 10.0 3.0 7.0 2.0 4.0 8.0 8.0 -239.0 0.0 9.0 1.0 8.0 0.0 8.0 10.0 3.0 4.0 3.0 0.0 0.0 7.0 4.0 4.0 0.0 7.0 8.0 9.0 8.0 
0.0 3.0 2.0 10.0 4.0 10.0 1.0 3.0 6.0 7.0 10.0 4.0 5.0 1.0 10.0 3.0 8.0 6.0 1.0 0.0 6.0 3.0 6.0 5.0 2.0 9.0 9.0 0.0 0.0 0.0 -207.0 10.0 6.0 0.0 4.0 9.0 2.0 5.0 1.0 0.0 10.0 6.0 4.0 1.0 2.0 5.0 0.0 0.0 4.0 4.0 
8.0 9.0 9.0 9.0 4.0 1.0 5.0 10.0 5.0 7.0 4.0 5.0 4.0 0.0 5.0 2.0 5.0 3.0 6.0 4.0 4.0 6.0 2.0 9.0 2.0 7.0 7.0 5.0 2.0 9.0 10.0 -249.0 3.0 4.0 6.0 2.0 2.0 8.0 10.0 7.0 3.0 9.0 0.0 6.0 3.0 0.0 7.0 7.0 0.0 4.0 
1.0 10.0 1.0 5.0 9.0 7.0 4.0 9.0 1.0 3.0 10.0 5.0 1.0 1.0 2.0 2.0 3.0 10.0 10.0 0.0 9.0 4.0 5.0 10.0 0.0 2.0 5.0 9.0 3.0 1.0 6.0 3.0 -240.0 5.0 3.0 1.0 6.0 7.0 5.0 8.0 10.0 3.0 5.0 9.0 3.0 7.0 3.0 4.0 8.0 2.0 
10.0 5.0 2.0 10.0 2.0 6.0 5.0 4.0 7.0 7.0 5.0 5.0 1.0 1.0 3.0 9.0 2.0 6.0 10.0 10.0 7.0 9.0 8.0 10.0 3.0 7.0 7.0 0.0 9.0 8.0 0.0 4.0 5.0 -250.0 5.0 10.0 8.0 1.0 5.0 10.0 0.0 0.0 1.0 6.0 3.0 0.0 5.0 1.0 3.0 5.0 
9.0 5.0 7.0 5.0 5.0 7.0 1.0 10.0 7.0 6.0 0.0 10.0 7.0 0.0 5.0 9.0 10.0 0.0 5.0 3.0 5.0 1.0 1.0 2.0 3.0 2.0 5.0 10.0 7.0 0.0 4.0 6.0 3.0 5.0 -255.0 4.0 5.0 8.0 7.0 7.0 4.0 3.0 7.0 10.0 5.0 5.0 10.0 1.0 8.0 6.0 
3.0 6.0 9.0 4.0 1.0 7.0 9.0 0.0 7.0 4.0 1.0 5.0 1.0 1.0 9.0 8.0 6.0 7.0 4.0 0.0 2.0 0.0 5.0 4.0 5.0 9.0 4.0 9.0 6.0 8.0 9.0 2.0 1.0 10.0 4.0 -235.0 1.0 3.0 6.0 9.0 0.0 2.0 5.0 7.0 0.0 8.0 5.0 8.0 10.0 1.0 
4.0 7.0 4.0 2.0 0.0 5.0 7.0 8.0 9.0 10.0 9.0 0.0 2.0 2.0 1.0 9.0 9.0 3.0 7.0 7.0 4.0 5.0 3.0 3.0 0.0 5.0 8.0 3.0 10.0 10.0 2.0 2.0 6.0 8.0 5.0 1.0 -246.0 0.0 0.0 6.0 8.0 4.0 0.0 8.0 2.0 7.0 9.0 9.0 9.0 4.0 
4.0 4.0 4.0 5.0 6.0 4.0 6.0 5.0 8.0 10.0 4.0 5.0 7.0 10.0 10.0 6.0 8.0 8.0 10.0 7.0 7.0 8.0 1.0 7.0 5.0 2.0 8.0 2.0 1.0 3.0 5.0 8.0 7.0 1.0 8.0 3.0 0.0 -258.0 0.0 6.0 7.0 1.0 5.0 10.0 3.0 2.0 8.0 0.0 8.0 1.0 
2.0 3.0 6.0 2.0 5.0 5.0 3.0 7.0 5.0 2.0 1.0 9.0 1.0 5.0 1.0 5.0 0.0 6.0 1.0 10.0 7.0 4.0 5.0 10.0 5.0 6.0 9.0 10.0 7.0 4.0 1.0 10.0 5.0 5.0 7.0 6.0 0.0 0.0 -229.0 3.0 6.0 4.0 5.0 9.0 0.0 2.0 7.0 10.0 3.0 0.0 
0.0 2.0 5.0 3.0 8.0 7.0 0.0 3.0 5.0 4.0 8.0 4.0 7.0 2.0 9.0 3.0 1.0 8.0 3.0 9.0 0.0 1.0 4.0 4.0 5.0 6.0 5.0 10.0 8.0 3.0 0.0 7.0 8.0 10.0 7.0 9.0 6.0 6.0 3.0 -254.0 3.0 5.0 7.0 9.0 10.0 3.0 9.0 3.0 2.0 10.0 
2.0 5.0 1.0 4.0 0.0 2.0 0.0 8.0 1.0 4.0 7.0 1.0 5.0 6.0 7.0 3.0 2.0 4.0 4.0 2.0 8.0 1.0 0.0 1.0 9.0 6.0 7.0 5.0 1.0 0.0 10.0 3.0 10.0 0.0 4.0 0.0 8.0 7.0 6.0 3.0 -211.0 0.0 8.0 5.0 9.0 9.0 4.0 9.0 1.0 9.0 
2.0 2.0 2.0 5.0 4.0 2.0 2.0 6.0 3.0 5.0 3.0 10.0 3.0 7.0 0.0 0.0 1.0 6.0 6.0 1.0 0.0 8.0 8.0 3.0 1.0 4.0 0.0 10.0 2.0 0.0 6.0 9.0 3.0 0.0 3.0 2.0 4.0 1.0 4.0 5.0 0.0 -190.0 9.0 1.0 10.0 1.0 9.0 8.0 6.0 3.0 
3.0 6.0 10.0 3.0 0.0 8.0 4.0 5.0 6.0 6.0 1.0 4.0 4.0 0.0 10.0 10.0 0.0 8.0 7.0 1.0 8.0 6.0 9.0 7.0 10.0 10.0 9.0 0.0 9.0 7.0 4.0 0.0 5.0 1.0 7.0 5.0 0.0 5.0 5.0 7.0 8.0 9.0 -249.0 1.0 1.0 6.0 5.0 2.0 7.0 0.0 
9.0 6.0 7.0 6.0 2.0 4.0 1.0 0.0 8.0 8.0 0.0 9.0 0.0 8.0 2.0 3.0 7.0 4.0 2.0 1.0 6.0 8.0 10.0 1.0 7.0 0.0 5.0 2.0 1.0 4.0 1.0 6.0 9.0 6.0 10.0 7.0 8.0 10.0 9.0 9.0 5.0 1.0 1.0 -251.0 8.0 8.0 6.0 1.0 8.0 7.0 
0.0 10.0 2.0 10.0 10.0 5.0 0.0 10.0 5.0 7.0 3.0 7.0 7.0 3.0 2.0 9.0 9.0 5.0 2.0 8.0 9.0 3.0 2.0 6.0 6.0 7.0 0.0 2.0 4.0 4.0 2.0 3.0 3.0 3.0 5.0 0.0 2.0 3.0 0.0 10.0 9.0 10.0 1.0 8.0 -232.0 4.0 6.0 2.0 4.0 0.0 
7.0 9.0 2.0 3.0 2.0 9.0 9.0 2.0 5.0 7.0 0.0 3.0 3.0 0.0 7.0 9.0 1.0 3.0 3.0 1.0 7.0 2.0 10.0 7.0 0.0 9.0 8.0 8.0 7.0 0.0 5.0 0.0 7.0 0.0 5.0 8.0 7.0 2.0 2.0 3.0 9.0 1.0 6.0 8.0 4.0 -236.0 7.0 8.0 3.0 8.0 
4.0 6.0 7.0 0.0 1.0 7.0 9.0 0.0 3.0 9.0 7.0 10.0 8.0 4.0 7.0 9.0 8.0 5.0 10.0 1.0 10.0 8.0 10.0 3.0 1.0 5.0 3.0 10.0 6.0 7.0 0.0 7.0 3.0 5.0 10.0 5.0 9.0 8.0 7.0 9.0 4.0 9.0 5.0 6.0 6.0 7.0 -294.0 8.0 2.0 6.0 
6.0 10.0 10.0 8.0 0.0 6.0 8.0 6.0 4.0 2.0 3.0 3.0 10.0 2.0 10.0 4.0 9.0 0.0 4.0 1.0 9.0 1.0 7.0 10.0 9.0 2.0 4.0 0.0 3.0 8.0 0.0 7.0 4.0 1.0 1.0 8.0 9.0 0.0 10.0 3.0 9.0 8.0 2.0 1.0 2.0 8.0 8.0 -254.0 8.0 6.0 
2.0 0.0 3.0 5.0 10.0 2.0 6.0 1.0 9.0 7.0 10.0 3.0 8.0 7.0 3.0 7.0 1.0 10.0 6.0 3.0 0.0 8.0 0.0 1.0 8.0 7.0 9.0 4.0 0.0 9.0 4.0 0.0 8.0 3.0 8.0 10.0 9.0 8.0 3.0 2.0 1.0 6.0 7.0 8.0 4.0 3.0 2.0 8.0 -252.0 9.0 
0.0 0.0 5.0 5.0 8.0 1.0 7.0 6.0 10.0 9.0 5.0 0.0 3.0 8.0 2.0 7.0 1.0 9.0 8.0 6.0 2.0 3.0 1.0 2.0 7.0 2.0 5.0 6.0 10.0 8.0 4.0 4.0 2.0 5.0 6.0 1.0 4.0 1.0 0.0 10.0 9.0 3.0 0.0 7.0 0.0 8.0 6.0 6.0 9.0 -231.0 

